SCIP Status        : solving was interrupted [time limit reached]
Total Time         :    3600.01
  solving          :    3600.00
  presolving       :       0.36 (included in solving)
  reading          :       0.01
  copying          :       0.94 (24 #copies) (minimal 0.00, maximal 0.07, average 0.04)
Original Problem   :
  Problem name     : bbbenchmark/g05_80.3.cut
  Variables        : 81 (80 binary, 0 integer, 0 implicit integer, 1 continuous)
  Constraints      : 1 initial, 1 maximal
  Objective        : minimize, 1 non-zeros (abs.min = 1, abs.max = 1)
Presolved Problem  :
  Problem name     : t_bbbenchmark/g05_80.3.cut
  Variables        : 1612 (80 binary, 0 integer, 1530 implicit integer, 2 continuous)
  Constraints      : 1534 initial, 6567 maximal
  Objective        : minimize, 1 non-zeros (abs.min = 1, abs.max = 1)
  Nonzeros         : 6307 constraint, 162 clique table
Presolvers         :   ExecTime  SetupTime  Calls  FixedVars   AggrVars   ChgTypes  ChgBounds   AddHoles    DelCons    AddCons   ChgSides   ChgCoefs
  boundshift       :       0.00       0.00      0          0          0          0          0          0          0          0          0          0
  convertinttobin  :       0.00       0.00      0          0          0          0          0          0          0          0          0          0
  domcol           :       0.00       0.00      1          0          0          0          0          0          0          0          0          0
  dualagg          :       0.00       0.00      0          0          0          0          0          0          0          0          0          0
  dualcomp         :       0.00       0.00      1          0          0          0          0          0          0          0          0          0
  dualinfer        :       0.00       0.00      0          0          0          0          0          0          0          0          0          0
  dualsparsify     :       0.00       0.00      1          0          0          0          0          0          0          0          0          0
  gateextraction   :       0.00       0.00      0          0          0          0          0          0          0          0          0          0
  implics          :       0.00       0.00      2          0          0          0          0          0          0          0          0          0
  inttobinary      :       0.00       0.00      0          0          0          0          0          0          0          0          0          0
  qpkktref         :       0.00       0.00      0          0          0          0          0          0          0          0          0          0
  redvub           :       0.00       0.00      0          0          0          0          0          0          0          0          0          0
  sparsify         :       0.00       0.00      1          0          0          0          0          0          0          0          0          0
  stuffing         :       0.00       0.00      0          0          0          0          0          0          0          0          0          0
  trivial          :       0.00       0.00      4          0          0          0          0          0          0          0          0          0
  tworowbnd        :       0.00       0.00      0          0          0          0          0          0          0          0          0          0
  dualfix          :       0.00       0.00      4          0          0          0          0          0          0          0          0          0
  genvbounds       :       0.00       0.00      0          0          0          0          0          0          0          0          0          0
  probing          :       0.24       0.00      1          0          0          0          0          0          0          0          0          0
  pseudoobj        :       0.00       0.00      1          0          0          0          1          0          0          0          0          0
  symmetry         :       0.00       0.00      0          0          0          0          0          0          0          0          0          0
  vbounds          :       0.00       0.00      1          0          0          0          0          0          0          0          0          0
  varbound         :       0.00       0.00      2          0          0          0          0          0          0          0          0          0
  and              :       0.01       0.00      2          0          0          0          0          0          0          0          0          0
  linear           :       0.00       0.00      2          0          0          0          0          0          0          0          0          0
  logicor          :       0.00       0.00      0          0          0          0          0          0          0          0          0          0
  bounddisjunction :       0.00       0.00      0          0          0          0          0          0          0          0          0          0
  nonlinear        :       0.11       0.00      5          0          0          0          1          0          0       1533          0          0
  benders          :       0.00       0.00      0          0          0          0          0          0          0          0          0          0
  components       :       0.00       0.00      1          0          0          0          0          0          0          0          0          0
  root node        :          -          -      -          0          -          -         28          -          -          -          -          -
Constraints        :     Number  MaxNumber  #Separate #Propagate    #EnfoLP    #EnfoRelax  #EnfoPS    #Check   #ResProp    Cutoffs    DomReds       Cuts    Applied      Conss   Children
  benderslp        :          0          0          0          0      64313          0          0       3479          0          0          0          0          0          0          0
  integral         :          0          0          0          0      64313          0          0       3479          0          0       1829          0          0       1127     126722
  varbound         :          1          1        155     239931          0          0          0         47          0          0         69          0          0          0          0
  and              :       1530       1530      75501     534474          9          0          0         47     226968          0    2020170       6355       6111          0          0
  linear           :          3+         5        155     534477          9          0          0         45        307          0      32103          0          0          0          0
  logicor          :          0+      4640          0     137208          0          0          0          0         99        582         45          0          0          0          0
  bounddisjunction :          0+       392          0      36595          0          0          0          0          2         18          0          0          0          0          0
  benders          :          0          0          0          0          9          0          0         48          0          0          0          0          0          0          0
  countsols        :          0          0          0          0          9          0          0         48          0          0          0          0          0          0          0
  components       :          0          0          0          0          0          0          0          0          0          0          0          0          0          0          0
Constraint Timings :  TotalTime  SetupTime   Separate  Propagate     EnfoLP     EnfoPS     EnfoRelax   Check    ResProp    SB-Prop
  benderslp        :       0.06       0.00       0.00       0.00       0.06       0.00       0.00       0.00       0.00       0.00
  integral         :      46.20       0.00       0.00       0.00      46.18       0.00       0.00       0.02       0.00       0.00
  varbound         :       0.06       0.00       0.00       0.06       0.00       0.00       0.00       0.00       0.00       0.00
  and              :      61.55       0.00      37.06      23.96       0.00       0.00       0.00       0.01       0.20       0.32
  linear           :       0.85       0.00       0.03       0.80       0.00       0.00       0.00       0.00       0.02       0.00
  logicor          :       5.86       0.00       0.00       5.85       0.00       0.00       0.00       0.00       0.00       0.01
  bounddisjunction :       0.36       0.00       0.00       0.36       0.00       0.00       0.00       0.00       0.00       0.00
  benders          :       0.00       0.00       0.00       0.00       0.00       0.00       0.00       0.00       0.00       0.00
  countsols        :       0.00       0.00       0.00       0.00       0.00       0.00       0.00       0.00       0.00       0.00
  components       :       0.16       0.00       0.00       0.15       0.00       0.00       0.00       0.00       0.00       0.01
Propagators        : #Propagate   #ResProp    Cutoffs    DomReds
  dualfix          :          2          0          0          0
  genvbounds       :          0          0          0          0
  nlobbt           :          0          0          0          0
  obbt             :          0          0          0          0
  probing          :          0          0          0          0
  pseudoobj        :     302996          0          0         29
  redcost          :     155569          0          0      80870
  rootredcost      :         20          0          0          0
  symmetry         :          0          0          0          0
  vbounds          :      60494          0          0          0
Propagator Timings :  TotalTime  SetupTime   Presolve  Propagate    ResProp    SB-Prop
  dualfix          :       0.00       0.00       0.00       0.00       0.00       0.00
  genvbounds       :       0.36       0.00       0.00       0.35       0.00       0.01
  nlobbt           :       0.00       0.00       0.00       0.00       0.00       0.00
  obbt             :       0.00       0.00       0.00       0.00       0.00       0.00
  probing          :       0.24       0.00       0.24       0.00       0.00       0.00
  pseudoobj        :       0.55       0.00       0.00       0.55       0.00       0.00
  redcost          :       9.05       0.00       0.00       9.05       0.00       0.00
  rootredcost      :       0.44       0.00       0.00       0.44       0.00       0.00
  symmetry         :       0.28       0.00       0.00       0.26       0.00       0.02
  vbounds          :       0.43       0.00       0.00       0.43       0.00       0.00
Conflict Analysis  :       Time      Calls    Success    DomReds  Conflicts   Literals    Reconvs ReconvLits   Dualrays   Nonzeros   LP Iters   (pool size: [10000,10000])
  propagation      :       0.00        600        535          -        604       46.3          0        0.0          -          -          -
  infeasible LP    :       0.00          0          0          -          0        0.0          0        0.0          4       87.8          0
  bound exceed. LP :      14.24       6713       4785          -      72142       75.4          1       46.0          0        0.0      37356
  strong branching :       0.00          0          0          -          0        0.0          0        0.0          -          -          0
  pseudo solution  :       0.00          0          0          -          0        0.0          0        0.0          -          -          -
  applied globally :       0.29          -          -          0      21599       82.7          -          -          4          -          -
  applied locally  :          -          -          -          0          0        0.0          -          -          0          -          -
Separators         :   ExecTime  SetupTime      Calls  RootCalls    Cutoffs    DomReds  FoundCuts ViaPoolAdd  DirectAdd    Applied ViaPoolApp  DirectApp      Conss
  cut pool         :       5.29          -      16969        188          -          -      37349    1145837          -          -          -          -          -    (maximal pool size:       2524)
  aggregation      :      20.01       0.00       5784        155          0          0        126        665          0         84         84          0          0
  > cmir           :          -          -          -          -          -          -          -        665          0         84         84          0          -
  > flowcover      :          -          -          -          -          -          -          -          0          0          0          0          0          -
  > knapsackcover  :          -          -          -          -          -          -          -          0          0          0          0          0          -
  cgmip            :       0.00       0.00          0          0          0          0          0          0          0          0          0          0          0
  clique           :       0.00       0.00        155        155          0          0          0          0          0          0          0          0          0
  closecuts        :       0.00       0.00          0          0          0          0          0          0          0          0          0          0          0
  convexproj       :       0.00       0.00          0          0          0          0          0          0          0          0          0          0          0
  disjunctive      :       0.00       0.00          0          0          0          0          0          0          0          0          0          0          0
  eccuts           :       0.00       0.00          0          0          0          0          0          0          0          0          0          0          0
  gauge            :       0.00       0.00          0          0          0          0          0          0          0          0          0          0          0
  gomory           :       0.00       0.00          0          0          0          0          0          0          0          0          0          0          0
  > gomorymi       :          -          -          -          -          -          -          -          0          0          0          0          0          -
  > strongcg       :          -          -          -          -          -          -          -          0          0          0          0          0          -
  impliedbounds    :       0.31       0.00       5784        155          0          0         15          3          0          2          2          0          0
  interlattice     :       0.59       0.00        117        117          0          0        117          0        117        117          0        117          0
  interminor       :       0.00       0.00          0          0          0          0          0          0          0          0          0          0          0
  intersub         :       0.00       0.00          0          0          0          0          0          0          0          0          0          0          0
  intobj           :       0.00       0.00          0          0          0          0          0          0          0          0          0          0          0
  mcf              :       0.00       0.00          1          1          0          0          0          0          0          0          0          0          0
  minor            :       0.02       0.00          0          0          0          0          0          0          0          0          0          0          0
  mixing           :       0.01       0.00       5788        155          0          0          0          0          0          0          0          0          0
  oddcycle         :       0.00       0.00          0          0          0          0          0          0          0          0          0          0          0
  rapidlearning    :       0.01       0.00          0          0          0          0          0          0          0          0          0          0          0
  rlt              :       0.00       0.00         10         10          0          0          0          0          0          0          0          0          0
  zerohalf         :      46.05       0.00       5167         20          0          0      37208    1145169          0     124444     124444          0          0
Cutselectors       :   ExecTime  SetupTime      Calls  RootCalls   Selected     Forced   Filtered  RootSelec   RootForc   RootFilt 
  hybrid           :       1.09       0.00      14265        155     130758          0    1021551        305          0         14
Pricers            :   ExecTime  SetupTime      Calls       Vars
  problem variables:       0.00          -          0          0
Branching Rules    :   ExecTime  SetupTime   BranchLP  BranchExt   BranchPS    Cutoffs    DomReds       Cuts      Conss   Children
  allfullstrong    :       0.00       0.00          0          0          0          0          0          0          0          0
  cloud            :       0.00       0.00          0          0          0          0          0          0          0          0
  distribution     :       0.00       0.00          0          0          0          0          0          0          0          0
  fullstrong       :       0.00       0.00          0          0          0          0          0          0          0          0
  inference        :       0.00       0.00          0          0          0          0          0          0          0          0
  leastinf         :       0.00       0.00          0          0          0          0          0          0          0          0
  lookahead        :       0.00       0.00          0          0          0          0          0          0          0          0
  mostinf          :       0.00       0.00          0          0          0          0          0          0          0          0
  multaggr         :       0.00       0.00          0          0          0          0          0          0          0          0
  nodereopt        :       0.00       0.00          0          0          0          0          0          0          0          0
  pscost           :       0.00       0.00          0          0          0          0          0          0          0          0
  random           :       0.00       0.00          0          0          0          0          0          0          0          0
  relpscost        :      46.01       0.00      64304          0          0          0       1829          0       1128     126722
  vanillafullstrong:       0.00       0.00          0          0          0          0          0          0          0          0
Primal Heuristics  :   ExecTime  SetupTime      Calls      Found       Best
  LP solutions     :       0.02          -          -          9          9
  relax solutions  :       0.00          -          -          0          0
  pseudo solutions :       0.00          -          -          0          0
  strong branching :       0.01          -          -          0          0
  actconsdiving    :       0.00       0.00          0          0          0
  adaptivediving   :       3.79       0.00         36          0          0
  alns             :       2.37       0.00         21          3          3
  bound            :       0.00       0.00          0          0          0
  clique           :       0.01       0.00          1          0          0
  coefdiving       :       0.00       0.00          0          0          0
  completesol      :       0.00       0.00          0          0          0
  conflictdiving   :      35.17       0.00        425          0          0
  crossover        :       0.22       0.00          1          1          1
  dins             :       0.00       0.00          0          0          0
  distributiondivin:      61.26       0.00        425          0          0
  dps              :       0.00       0.00          0          0          0
  dualval          :       0.00       0.00          0          0          0
  farkasdiving     :       0.01       0.00          0          0          0
  feaspump         :       0.01       0.00          0          0          0
  fixandinfer      :       0.00       0.00          0          0          0
  fracdiving       :      45.71       0.00        426          0          0
  gins             :       0.13       0.00          0          0          0
  guideddiving     :      36.84       0.00        425          3          3
  indicator        :       0.03       0.00          0          0          0
  indicatordiving  :       0.00       0.00          0          0          0
  intdiving        :       0.00       0.00          0          0          0
  intshifting      :       0.32       0.00         48          0          0
  linesearchdiving :      33.61       0.00        425          0          0
  localbranching   :       0.00       0.00          0          0          0
  locks            :       0.01       0.00          1          0          0
  lpface           :       0.15       0.00          0          0          0
  mpec             :       5.37       0.00          1          0          0
  multistart       :       0.00       0.00          0          0          0
  mutation         :       0.00       0.00          0          0          0
  nlpdiving        :       9.09       0.00         10          0          0
  objpscostdiving  :      89.54       0.00        107         14          2
  octane           :       0.00       0.00          0          0          0
  ofins            :       0.13       0.00          0          0          0
  oneopt           :       0.11       0.00         31          0          0
  padm             :       0.00       0.00          0          0          0
  proximity        :       0.00       0.00          0          0          0
  pscostdiving     :      48.08       0.00        425          1          1
  randrounding     :       0.77       0.00       3427          0          0
  rens             :       0.00       0.00          0          0          0
  reoptsols        :       0.00       0.00          0          0          0
  repair           :       0.00       0.00          0          0          0
  rins             :       3.30       0.00          1          0          0
  rootsoldiving    :      65.06       0.00        108         10          0
  rounding         :       1.11       0.00       3940          0          0
  shiftandpropagate:       0.00       0.00          0          0          0
  shifting         :      50.39       0.00      11869         10         10
  simplerounding   :       0.09       0.00          0          0          0
  subnlp           :     114.79       0.00          0          0          0
  trivial          :       0.00       0.00          2          2          2
  trivialnegation  :       0.00       0.00          0          0          0
  trustregion      :       0.00       0.00          0          0          0
  trysol           :       0.11       0.00          0          0          0
  twoopt           :       0.00       0.00          0          0          0
  undercover       :       0.73       0.00          1          1          1
  vbounds          :       0.00       0.00          0          0          0
  veclendiving     :      39.45       0.00        425          0          0
  zeroobj          :       0.00       0.00          0          0          0
  zirounding       :       0.46       0.00       1000          0          0
  other solutions  :          -          -          -          0          -
Diving (single)    :      Calls      Nodes   LP Iters Backtracks  Conflicts   MinDepth   MaxDepth   AvgDepth  RoundSols  NLeafSols  MinSolDpt  MaxSolDpt  AvgSolDpt
  actconsdiving    :          0          -          -          -          -          -          -          -          -          -          -          -          -
  coefdiving       :          0          -          -          -          -          -          -          -          -          -          -          -          -
  conflictdiving   :        425      14665     324840        443      14731         42         66       51.8          0          -          -          -          -
  distributiondivin:        425      10847     459468        464       6769         35         56       42.4          0          -          -          -          -
  farkasdiving     :          0          -          -          -          -          -          -          -          -          -          -          -          -
  fracdiving       :        426      54988     404247        420       4347         47        540      146.0          0          -          -          -          -
  guideddiving     :        425      46003     338416        175       3666         46        420      126.0          0          3         90        107       95.7
  indicatordiving  :          0          -          -          -          -          -          -          -          -          -          -          -          -
  linesearchdiving :        425      15554     317364        478      12302         37         77       53.2          0          -          -          -          -
  pscostdiving     :        425      14397     483211        435       7835         39         62       50.7          0          1         59         59       59.0
  veclendiving     :        425      14683     362256        524      17075         38         67       51.5          0          -          -          -          -
Diving (adaptive)  :      Calls      Nodes   LP Iters Backtracks  Conflicts   MinDepth   MaxDepth   AvgDepth  RoundSols  NLeafSols  MinSolDpt  MaxSolDpt  AvgSolDpt
  actconsdiving    :          7        213       9638          9        134         39         45       43.7          0          -          -          -          -
  coefdiving       :         15        488      14136         15        513         38         58       47.7          0          -          -          -          -
  conflictdiving   :          0          -          -          -          -          -          -          -          -          -          -          -          -
  distributiondivin:          0          -          -          -          -          -          -          -          -          -          -          -          -
  farkasdiving     :          0          -          -          -          -          -          -          -          -          -          -          -          -
  fracdiving       :          2        285        843          0          0        100        226      163.0          0          -          -          -          -
  guideddiving     :          5        547       4695          2         65         72        164      124.4          0          -          -          -          -
  indicatordiving  :          0          -          -          -          -          -          -          -          -          -          -          -          -
  linesearchdiving :          1         36        911          1         29         48         48       48.0          0          -          -          -          -
  pscostdiving     :          1         35        904          1         49         54         54       54.0          0          -          -          -          -
  veclendiving     :          5        185       3722          6        232         47         57       52.8          0          -          -          -          -
Neighborhoods      :      Calls  SetupTime  SolveTime SolveNodes       Sols       Best       Exp3  EpsGreedy        UCB TgtFixRate  Opt  Inf Node Stal  Sol  Usr Othr Actv
  rens             :          2       0.14       0.02          1          0          0    0.00000   -1.00000    0.54866      0.550    0    2    0    0    0    0    0    1
  rins             :          2       0.10       0.09         73          0          0    0.00000   -1.00000    0.46677      0.850    0    1    0    1    0    0    0    1
  mutation         :          1       0.01       0.01          1          0          0    0.00000   -1.00000    0.56945      0.700    0    1    0    0    0    0    0    1
  localbranching   :          5       0.34       0.19        119          1          1    0.00000   -1.00000    0.54249      0.716    1    2    0    2    0    0    0    1
  crossover        :          2       0.15       0.09         62          0          0    0.00000   -1.00000    0.47473      0.850    0    1    0    1    0    0    0    1
  proximity        :          1       0.05       0.01          1          0          0    0.00000   -1.00000    0.56933      0.700    0    1    0    0    0    0    0    1
  zeroobjective    :          6       0.37       0.43        184          2          2    0.00000   -1.00000    0.56276      0.636    2    2    0    2    0    0    0    1
  dins             :          2       0.11       0.07         71          0          0    0.00000   -1.00000    0.47366      0.550    0    2    0    0    0    0    0    1
  trustregion      :          0       0.00       0.00          0          0          0    0.00000   -1.00000    1.00000      0.900    0    0    0    0    0    0    0    0
Expressions        :   #IntEval  IntEvalTi   #RevProp  RevPropTi    DomReds    Cutoffs  #Estimate  EstimTime  Branching  #Simplify SimplifyTi Simplified
  pow              :          0       0.00          0       0.00          0          0          0       0.00          0          0       0.00          0
  prod             :       6320       0.01          0       0.00          0          0          0       0.00          0       4690       0.00          0
  sum              :          8       0.00          2       0.00          0          0          0       0.00          0          3       0.02          2
  var              :       5485       0.00          0       0.00          0          0          0       0.00          0      11154       0.00          0
  varidx           :          0       0.00          0       0.00          0          0          0       0.00          0          0       0.00          0
LP                 :       Time      Calls Iterations  Iter/call   Iter/sec  Time-0-It Calls-0-It    ItLimit
  primal LP        :     125.10       9412          0       0.00       0.00     125.04       9412
  dual LP          :    2511.33     137151   11831543      95.07    4711.27       5.97      12698
  lex dual LP      :       0.00          0          0       0.00          -
  barrier LP       :       0.00          0          0       0.00          -       0.00          0
  resolve instable :       0.00          0          0       0.00          -
  diving/probing LP:     394.49      16942    3460763     204.27    8772.75
  strong branching :      23.36       2008     220219     109.67    9427.18          -          -         79
    (at root node) :          -         19       5183     272.79          -
  conflict analysis:       5.72       3801      37356       9.83    6530.77
NLP relaxation     :
  solve time       :       9.07 (10 calls)
  convexity        :  nonconvex (4 linear rows, 0 convex ineq., 0 nonconvex ineq., 1530 nonlinear eq. or two-sided ineq.)
NLP Solvers        :  #Problems  ProblemTi    #Solves  SolveTime      #Iter  Time/Iter      #Okay #TimeLimit #IterLimit #LObjLimit #Interrupt  #NumError #EvalError  #OutOfMem #LicenseEr #OtherTerm   #GlobOpt    #LocOpt  #Feasible #LocInfeas #GlobInfea #Unbounded   #Unknown
  ipopt            :          2       5.37         12      14.64        370       0.04         12          0          0          0          0          0          0          0          0          0          0          0          0          2          0          0         10
B&B Tree           :
  number of runs   :          1
  nodes            :     109248 (63361 internal, 45887 leaves)
  feasible leaves  :          9
  infeas. leaves   :          2
  objective leaves :      45876
  nodes (total)    :     109248 (63361 internal, 45887 leaves)
  nodes left       :      17359
  max depth        :         48
  max depth (total):         48
  backtracks       :      22426 (20.5%)
  early backtracks :          0 (0.0%)
  nodes exc. ref.  :          0 (0.0%)
  delayed cutoffs  :          0
  repropagations   :       2335 (89 domain reductions, 0 cutoffs)
  avg switch length:       4.50
  switching time   :     144.94
Estim. Tree Size   :     218728
Estimation Tree    : 126723 nodes (109364 visited, 63361 internal, 46003 leaves, 17359 open), weight: 0.0000 completed 0.1101
Estimations        :      estim      value      trend resolution     smooth
  wbe              : 71649111288          -          -          -          -
  tree-profile     :         -1          -          -          -          -
  gap              :    1279976    0.77968    0.00002         64    1418735
  tree-weight      :     218728    0.00000    0.00000         64     218391
  leaf-frequency   :    1352348    0.42064    0.00001         64    1293194
  ssg              :    2796072    0.82618   -0.00004         64    2804445
  open-nodes       :     218728 17359.00000   11.30579         64     218391
Root Node          :
  First LP value   : -1.00000000000000e+00
  First LP Iters   :       1020 (12750.00 Iter/sec)
  First LP Time    :       0.08
  Final Dual Bound : -9.12895569620256e-01
  Final Root Iters :       3341
  Root LP Estimate : -4.89209032867554e-01
Solution           :
  Solutions found  :         54 (32 improvements)
  First Solution   : +1.00000000000000e+05   (in run 1, after 0 nodes, 0.00 seconds, depth 0, found by <trivial>)
  Gap First Sol.   :   infinite
  Gap Last Sol.    :      34.50 %
  Primal Bound     : -5.71518987341772e-01   (in run 1, after 36010 nodes, 1152.29 seconds, depth 36, found by <crossover>)
  Dual Bound       : -7.33015229430380e-01
  Gap              :      28.26 %
Integrals          :      Total       Avg%
  primal-dual      :   91571.25      25.44
  primal-ref       :          -          - (not evaluated)
  dual-ref         :          -          - (not evaluated)
